60
1 0 1
2 0 5
2 1 2
3 0 13
3 1 6
4 0 11
4 1 4
4 2 10
4 3 13
5 1 2
5 4 2
6 0 4
6 4 2
6 5 1
7 0 13
7 1 10
7 3 13
7 4 3
7 5 5
7 6 8
8 0 7
8 2 2
8 5 13
8 6 11
9 0 9
9 3 7
10 3 9
10 7 5
10 8 1
10 9 10
11 0 1
11 1 2
11 3 11
11 4 10
11 5 7
11 7 13
11 9 5
12 0 12
12 2 10
12 7 2
13 2 2
13 3 9
13 4 12
13 5 4
13 8 1
14 0 10
14 1 9
14 2 5
14 4 5
14 8 1
15 5 8
15 6 13
15 8 13
15 9 6
15 11 6
15 13 13
15 14 4
16 0 3
16 1 7
16 2 4
16 4 7
16 7 11
16 9 9
16 10 12
16 13 13
16 14 2
17 1 10
17 3 4
17 4 3
17 6 12
17 8 5
17 9 2
17 12 2
18 1 1
18 4 10
18 7 3
18 9 8
18 12 4
18 13 6
18 14 11
18 17 7
19 1 5
19 2 12
19 6 13
19 9 12
19 10 2
19 11 4
19 12 12
19 13 3
19 16 5
19 17 2
20 1 10
20 2 5
20 3 10
20 4 6
20 5 13
20 6 10
20 8 11
20 9 4
20 12 4
20 14 9
20 15 10
20 18 4
21 0 1
21 2 11
21 3 5
21 4 8
21 6 1
21 9 1
21 10 7
21 11 2
21 12 1
21 14 6
21 15 12
21 16 13
21 17 13
22 1 1
22 4 8
22 6 10
22 7 10
22 9 2
22 10 12
22 12 9
22 16 8
22 20 12
23 0 5
23 1 12
23 2 12
23 8 7
23 9 7
23 10 7
23 13 1
23 14 12
23 15 5
23 16 1
23 20 4
24 0 13
24 3 9
24 5 8
24 10 6
24 11 3
24 12 4
24 13 9
24 18 11
24 19 6
24 20 10
24 21 13
25 1 4
25 2 2
25 10 4
25 11 5
25 13 3
25 15 1
25 16 3
25 17 8
25 19 6
25 20 11
26 3 9
26 4 11
26 5 2
26 6 6
26 9 9
26 10 1
26 11 12
26 13 8
26 15 8
26 16 4
26 17 8
26 18 5
26 20 10
26 21 4
26 23 10
26 24 9
27 1 3
27 2 5
27 7 13
27 9 4
27 12 11
27 13 6
27 18 6
27 24 10
28 0 7
28 2 11
28 3 12
28 5 2
28 6 3
28 8 6
28 10 13
28 12 12
28 13 4
28 16 4
28 17 5
28 18 11
28 23 3
28 24 11
29 0 9
29 4 9
29 5 2
29 6 8
29 8 3
29 10 1
29 11 8
29 12 10
29 14 6
29 16 5
29 17 4
29 18 6
29 23 13
29 24 8
29 25 8
29 26 5
29 27 5
29 28 4
30 0 2
30 2 4
30 3 3
30 4 4
30 7 3
30 8 12
30 9 9
30 10 4
30 11 6
30 14 8
30 15 7
30 18 2
30 19 10
30 20 8
30 21 10
30 22 5
30 23 1
30 26 1
30 27 12
31 0 2
31 2 1
31 3 3
31 4 5
31 5 6
31 7 10
31 8 10
31 9 12
31 11 6
31 13 1
31 14 7
31 19 11
31 20 10
31 21 11
31 22 13
31 23 12
31 25 11
31 26 3
31 28 3
31 30 6
32 1 11
32 5 3
32 7 6
32 8 8
32 10 2
32 11 7
32 12 10
32 13 2
32 15 2
32 20 9
32 24 3
32 25 10
32 27 9
32 29 6
32 31 1
33 2 8
33 4 11
33 6 5
33 8 6
33 10 6
33 11 12
33 12 13
33 14 11
33 16 6
33 17 9
33 19 8
33 20 3
33 21 8
33 25 12
33 28 2
33 32 1
34 1 5
34 3 10
34 4 9
34 5 6
34 6 8
34 9 13
34 13 10
34 15 12
34 16 5
34 20 11
34 21 5
34 23 9
34 24 1
34 28 3
34 29 10
35 0 8
35 1 6
35 5 11
35 6 12
35 7 10
35 10 10
35 11 11
35 12 12
35 13 13
35 14 3
35 15 5
35 16 5
35 19 7
35 23 2
35 24 6
35 25 9
35 27 2
35 28 12
35 30 4
35 31 8
35 33 1
36 0 1
36 1 8
36 2 7
36 5 11
36 11 6
36 12 12
36 13 11
36 15 10
36 16 8
36 17 1
36 19 5
36 20 12
36 25 4
36 28 7
36 30 7
36 32 6
36 33 6
36 35 10
37 3 4
37 6 12
37 9 10
37 12 2
37 13 13
37 14 2
37 15 11
37 16 11
37 19 6
37 23 12
37 25 12
37 26 4
37 29 12
37 33 9
37 34 8
37 35 10
38 4 2
38 6 10
38 8 3
38 15 11
38 16 5
38 19 3
38 22 12
38 26 3
38 27 10
38 31 10
38 32 10
38 34 6
38 35 10
38 36 12
39 5 1
39 6 12
39 7 5
39 9 13
39 10 9
39 13 7
39 14 6
39 16 10
39 18 13
39 20 11
39 21 6
39 23 12
39 24 8
39 25 9
39 28 7
39 29 1
39 31 10
39 32 3
39 34 6
40 2 8
40 3 10
40 4 13
40 6 5
40 8 7
40 9 8
40 10 12
40 15 9
40 17 10
40 18 5
40 20 9
40 22 7
40 26 5
40 27 12
40 29 11
40 31 12
40 32 13
40 34 3
40 36 12
40 37 11
40 38 13
41 1 13
41 2 11
41 3 1
41 6 7
41 7 11
41 10 12
41 11 6
41 13 8
41 16 13
41 18 9
41 21 9
41 26 7
41 27 11
41 28 2
41 29 12
41 32 6
41 34 10
41 36 1
41 37 2
41 40 9
42 1 1
42 2 1
42 3 8
42 4 11
42 8 8
42 12 11
42 13 2
42 14 5
42 16 5
42 17 6
42 24 9
42 25 10
42 26 4
42 28 13
42 29 5
42 33 11
42 34 5
42 36 11
42 39 5
43 0 9
43 1 9
43 3 2
43 7 6
43 9 2
43 10 3
43 11 13
43 12 4
43 15 6
43 19 4
43 21 9
43 27 1
43 29 7
43 33 4
43 38 13
43 40 12
43 41 3
44 3 1
44 6 5
44 10 4
44 15 10
44 16 7
44 17 12
44 18 1
44 22 10
44 24 3
44 25 8
44 26 7
44 27 12
44 28 8
44 29 9
44 30 1
44 33 4
44 36 11
44 39 12
45 1 10
45 2 11
45 3 7
45 4 12
45 5 12
45 8 9
45 10 4
45 11 4
45 12 3
45 16 13
45 17 11
45 22 10
45 23 6
45 26 10
45 29 4
45 30 1
45 32 2
45 34 6
45 36 2
45 37 7
45 38 2
45 39 9
45 40 11
45 43 9
45 44 10
46 1 6
46 3 12
46 4 6
46 5 10
46 7 8
46 9 10
46 13 11
46 14 6
46 16 9
46 17 7
46 20 13
46 21 3
46 26 9
46 31 7
46 32 2
46 33 7
46 34 7
46 35 9
46 36 3
46 37 7
46 38 8
46 39 7
46 40 4
46 41 12
46 43 8
46 44 13
47 2 9
47 3 4
47 5 8
47 6 6
47 8 11
47 10 3
47 11 3
47 12 7
47 14 13
47 15 2
47 16 10
47 17 4
47 19 10
47 20 5
47 21 2
47 23 8
47 25 6
47 29 5
47 33 8
47 37 5
47 38 7
47 40 9
47 42 7
47 45 6
48 3 5
48 11 12
48 12 3
48 16 9
48 17 6
48 18 12
48 19 12
48 20 3
48 21 13
48 24 7
48 25 4
48 26 10
48 27 7
48 28 2
48 29 8
48 30 2
48 32 6
48 33 8
48 36 13
48 37 1
48 39 7
48 40 8
48 42 1
48 45 1
48 47 10
49 0 1
49 3 5
49 5 7
49 8 6
49 10 7
49 11 4
49 14 2
49 15 11
49 16 4
49 17 4
49 18 10
49 19 6
49 21 3
49 23 10
49 25 9
49 26 6
49 27 9
49 28 10
49 30 3
49 31 13
49 32 4
49 34 4
49 35 9
49 36 3
49 37 5
49 38 9
49 39 4
49 42 4
49 44 4
49 45 7
49 46 9
49 48 4
50 0 7
50 2 9
50 6 12
50 11 11
50 12 13
50 13 6
50 14 4
50 17 2
50 21 9
50 22 12
50 27 4
50 28 4
50 29 6
50 30 10
50 36 1
50 39 2
50 42 9
50 43 6
50 44 8
50 45 4
50 48 2
50 49 4
51 6 8
51 8 6
51 9 6
51 10 13
51 11 13
51 16 6
51 17 12
51 18 6
51 19 10
51 20 11
51 21 11
51 22 1
51 27 8
51 29 2
51 30 12
51 32 7
51 35 4
51 36 8
51 37 10
51 39 5
51 42 7
51 43 4
51 46 4
51 47 3
51 48 1
51 49 8
52 0 3
52 1 7
52 2 1
52 7 4
52 8 11
52 9 5
52 11 8
52 13 8
52 17 10
52 18 12
52 21 5
52 22 4
52 23 2
52 24 1
52 25 3
52 26 3
52 27 10
52 28 6
52 31 6
52 32 1
52 33 9
52 36 1
52 37 8
52 38 1
52 40 6
52 42 1
52 43 3
52 44 7
52 45 7
52 46 9
52 47 9
53 1 5
53 2 6
53 4 9
53 5 1
53 6 13
53 10 5
53 12 10
53 13 9
53 14 2
53 18 9
53 21 10
53 24 1
53 26 3
53 27 13
53 31 2
53 32 4
53 33 8
53 34 9
53 35 13
53 37 3
53 39 8
53 41 10
53 43 4
53 48 8
53 50 13
53 51 2
53 52 2
54 0 9
54 1 8
54 2 11
54 5 12
54 8 1
54 13 4
54 16 7
54 18 9
54 20 11
54 23 5
54 24 13
54 25 5
54 26 6
54 31 7
54 32 11
54 34 1
54 35 6
54 36 3
54 37 12
54 38 9
54 40 1
54 41 13
54 43 3
54 44 11
54 47 7
54 48 10
54 50 10
54 51 5
54 52 3
54 53 7
55 0 12
55 4 10
55 8 5
55 10 7
55 12 4
55 15 4
55 19 11
55 21 4
55 23 4
55 24 4
55 26 9
55 27 12
55 31 3
55 32 5
55 33 1
55 34 1
55 35 12
55 38 12
55 39 11
55 43 2
55 47 12
55 48 7
55 49 7
55 50 10
55 51 8
55 52 5
55 53 12
55 54 13
56 0 5
56 4 9
56 5 4
56 10 3
56 14 3
56 16 6
56 20 10
56 22 7
56 26 3
56 27 9
56 28 2
56 29 5
56 33 8
56 35 3
56 37 4
56 41 12
56 42 6
56 44 5
56 45 6
56 46 3
56 47 3
56 51 4
56 53 8
57 2 8
57 4 2
57 6 5
57 8 10
57 11 1
57 14 4
57 16 2
57 17 10
57 20 13
57 23 6
57 25 10
57 27 7
57 32 10
57 34 4
57 35 1
57 39 9
57 40 4
57 42 5
57 44 12
57 47 4
57 48 7
57 49 12
57 52 12
57 54 11
58 0 12
58 1 8
58 2 4
58 6 6
58 12 12
58 15 9
58 22 3
58 23 12
58 26 10
58 27 10
58 30 4
58 32 6
58 33 6
58 40 4
58 41 2
58 45 13
58 48 6
58 50 11
58 51 1
58 52 3
58 53 1
58 56 11
59 2 13
59 3 4
59 4 12
59 5 13
59 6 6
59 7 2
59 8 13
59 10 1
59 11 1
59 12 3
59 14 8
59 16 3
59 18 7
59 24 8
59 25 13
59 26 10
59 30 10
59 33 11
59 34 13
59 36 11
59 37 10
59 39 3
59 41 5
59 42 12
59 44 9
59 45 10
59 48 2
59 49 3
59 50 8
59 51 11
59 52 13
59 54 7
59 57 1
